
%    +-----------+
% 8  | | | | | | |
% 7  | |7| | | | |
% 6  | | | | | | |
% 5  | | | | | | |
% 4  | | | | | | |
% 3  | |1|1|6|8| |
% 2  | |1|1| |5| |
% 1  | |2| |3|4| |
%    +-----------+
n=6;
m=8;
h=2;
%maxT=15;
boxNumber=8;
boxSideLen = [2, 1, 1, 1, 1, 1, 1, 1];
boxStartX  = [2, 2, 4, 5, 5, 4, 2, 5];
boxStartY  = [2, 1, 1, 1, 2, 3, 7, 3];
